<instance format="XCSP3" type="QSTR">
  <variables>
    <var id="v0" type="interval"/>
    <var id="v1" type="interval"/>
    <var id="v2" type="interval"/>
    <var id="v3" type="interval"/>
  </variables>   
  <constraints>
    <interval>
      <scope> v0 v1 </scope>
      <relation> di m s </relation>
    </interval> 
    <interval>
      <scope> v0 v3 </scope>
      <relation> m s fi </relation>
    </interval>
    <interval>
      <scope> v1 v2 </scope>
      <relation> o oi </relation>
    </interval>
    <interval>
      <scope> v2 v3 </scope>
      <relation> d o fi </relation>
    </interval>
  </constraints>
</instance>
